language Essence 1.3

letting class be
        function(1 --> 2, 2 --> 1, 3 --> 6, 4 --> 7, 5 --> 10, 6 --> 1, 7 --> 3, 8 --> 5, 9 --> 7, 10 --> 3, 11 --> 1,
                 12 --> 3, 13 --> 3, 14 --> 10, 15 --> 8, 16 --> 9, 17 --> 2, 18 --> 4, 19 --> 9, 20 --> 10, 21 --> 9,
                 22 --> 7, 23 --> 1, 24 --> 6, 25 --> 3, 26 --> 6, 27 --> 1)
letting deck_length be 91
letting deck_width be 16
letting length be
        function(1 --> 1, 2 --> 1, 3 --> 1, 4 --> 1, 5 --> 1, 6 --> 1, 7 --> 1, 8 --> 1, 9 --> 19, 10 --> 1, 11 --> 1,
                 12 --> 1, 13 --> 9, 14 --> 1, 15 --> 1, 16 --> 1, 17 --> 1, 18 --> 1, 19 --> 2, 20 --> 1, 21 --> 3,
                 22 --> 1, 23 --> 1, 24 --> 1, 25 --> 1, 26 --> 7, 27 --> 1)
letting n_classes be 10
letting n_containers be 27
letting separation be function()
letting width be
        function(1 --> 10, 2 --> 1, 3 --> 5, 4 --> 5, 5 --> 9, 6 --> 8, 7 --> 12, 8 --> 3, 9 --> 14, 10 --> 3,
                 11 --> 12, 12 --> 11, 13 --> 15, 14 --> 10, 15 --> 4, 16 --> 8, 17 --> 9, 18 --> 5, 19 --> 13,
                 20 --> 8, 21 --> 1, 22 --> 14, 23 --> 5, 24 --> 1, 25 --> 12, 26 --> 15, 27 --> 7)
